(declare-const ent0 Bool)
(declare-const ent1 Bool)
(declare-const ent2 Bool)
(declare-const ent3 Bool)
(declare-const ent4 Bool)
(declare-const ent5 Bool)
(declare-const reac0 Bool)
(declare-const dir0 Bool)
(declare-const coef0 Int)
(declare-const reac1 Bool)
(declare-const dir1 Bool)
(declare-const coef1 Int)
(declare-const reac2 Bool)
(declare-const dir2 Bool)
(declare-const coef2 Int)
(declare-const reac3 Bool)
(declare-const dir3 Bool)
(declare-const coef3 Int)
(declare-const reac4 Bool)
(declare-const dir4 Bool)
(declare-const coef4 Int)
(declare-const reac5 Bool)
(declare-const dir5 Bool)
(declare-const coef5 Int)
(declare-const reac6 Bool)
(declare-const dir6 Bool)
(declare-const coef6 Int)
(declare-const reac7 Bool)
(declare-const dir7 Bool)
(declare-const coef7 Int)
(declare-const reac8 Bool)
(declare-const dir8 Bool)
(declare-const coef8 Int)
(assert (= dir0 (< coef0 0)))
(assert (= dir1 (< coef1 0)))
(assert (= dir2 (< coef2 0)))
(assert (= dir3 (< coef3 0)))
(assert (= dir4 (< coef4 0)))
(assert (= dir5 (< coef5 0)))
(assert (= dir6 (< coef6 0)))
(assert (= dir7 (< coef7 0)))
(assert (= dir8 (< coef8 0)))
(assert (=> reac0 (and(or ent0 ent0) ent1)))
(assert (=> reac1 (and(or ent0 ent1) ent2)))
(assert (=> reac2 (and(or ent1 ent1) ent3)))
(assert (=> reac3 (and(or ent0 ent2) ent3)))
(assert (=> reac4 (and(or ent0 ent3) ent4)))
(assert (=> reac5 (and(or ent1 ent2) ent4)))
(assert (=> reac6 (and(or ent0 ent4) ent5)))
(assert (=> reac7 (and(or ent1 ent3) ent5)))
(assert (=> reac8 (and(or ent2 ent2) ent5)))
(assert (=> (and reac1 (not dir1)) (or (not ent0) (not ent1))))
(assert (=> (and reac3 (not dir3)) (or (not ent0) (not ent2))))
(assert (=> (and reac4 (not dir4)) (or (not ent0) (not ent3))))
(assert (=> (and reac5 (not dir5)) (or (not ent1) (not ent2))))
(assert (=> (and reac6 (not dir6)) (or (not ent0) (not ent4))))
(assert (=> (and reac7 (not dir7)) (or (not ent1) (not ent3))))
(assert (=> ent0 (> (+ (ite reac0 (+ (- coef0) (- coef0)) 0)
 (ite reac1(- coef1) 0)
 (ite reac3(- coef3) 0)
 (ite reac4(- coef4) 0)
 (ite reac6(- coef6) 0)
 0) 0)))
(assert (=> ent1 (> (+ (ite reac0 coef0 0)
 (ite reac1(- coef1) 0)
 (ite reac2 (+ (- coef2) (- coef2)) 0)
 (ite reac5(- coef5) 0)
 (ite reac7(- coef7) 0)
 0) 0)))
(assert (=> ent2 (> (+ (ite reac1 coef1 0)
 (ite reac3(- coef3) 0)
 (ite reac5(- coef5) 0)
 (ite reac8 (+ (- coef8) (- coef8)) 0)
 0) 0)))
(assert (=> ent3 (> (+ (ite reac2 coef2 0)
 (ite reac3 coef3 0)
 (ite reac4(- coef4) 0)
 (ite reac7(- coef7) 0)
 0) 0)))
(assert (=> ent4 (> (+ (ite reac4 coef4 0)
 (ite reac5 coef5 0)
 (ite reac6(- coef6) 0)
 0) 0)))
(assert (=> ent5 (> (+ (ite reac6 coef6 0)
 (ite reac7 coef7 0)
 (ite reac8 coef8 0)
 0) 0)))
(assert (= (+ (ite ent0 1 0) (ite ent1 1 0) (ite ent2 1 0) (ite ent3 1 0) (ite ent4 1 0) (ite ent5 1 0)) 4))
(assert (>= (+ (ite reac0 1 0) (ite reac1 1 0) (ite reac2 1 0) (ite reac3 1 0) (ite reac4 1 0) (ite reac5 1 0) (ite reac6 1 0) (ite reac7 1 0) (ite reac8 1 0)) 4))
(assert (not (and reac5 (not dir5) reac6 (not dir6) reac8 dir8 ent2 ent4 ent5 (not reac0) (not reac1) (not reac2) (not reac3) (not reac4) (not reac7))))
(assert (not (and reac0 dir0 reac6 (not dir6) reac7 dir7 ent0 ent1 ent5 (not reac1) (not reac2) (not reac3) (not reac4) (not reac5) (not reac8))))
(assert (not (and reac3 (not dir3) reac7 (not dir7) reac8 dir8 ent2 ent3 ent5 (not reac0) (not reac1) (not reac2) (not reac4) (not reac5) (not reac6))))
(assert (not (and reac1 (not dir1) reac2 dir2 reac3 (not dir3) ent1 ent2 ent3 (not reac0) (not reac4) (not reac5) (not reac6) (not reac7) (not reac8))))
(assert (not (and reac1 dir1 reac7 (not dir7) reac8 dir8 ent1 ent2 ent5 (not reac0) (not reac2) (not reac3) (not reac4) (not reac5) (not reac6))))
(assert (not (and reac1 dir1 reac6 (not dir6) reac8 dir8 ent0 ent2 ent5 (not reac0) (not reac2) (not reac3) (not reac4) (not reac5) (not reac7))))
(assert (not (and reac0 dir0 reac2 dir2 reac3 (not dir3) ent0 ent1 ent3 (not reac1) (not reac4) (not reac5) (not reac6) (not reac7) (not reac8))))
(assert (not (and reac2 dir2 reac4 dir4 reac5 (not dir5) ent1 ent3 ent4 (not reac0) (not reac1) (not reac3) (not reac6) (not reac7) (not reac8))))
(assert (not (and reac0 dir0 reac4 (not dir4) reac5 dir5 ent0 ent1 ent4 (not reac1) (not reac2) (not reac3) (not reac6) (not reac7) (not reac8))))
(assert (not (and reac2 (not dir2) reac3 (not dir3) reac4 (not dir4) reac5 dir5 ent1 ent2 ent3 ent4 (not reac0) (not reac1) (not reac6) (not reac7) (not reac8))))
(assert (not (and reac2 dir2 reac3 (not dir3) reac4 dir4 reac5 (not dir5) ent0 ent1 ent3 ent4 (not reac0) (not reac1) (not reac6) (not reac7) (not reac8))))
(assert (not (and reac2 dir2 reac3 dir3 reac4 dir4 reac5 (not dir5) ent0 ent1 ent3 ent4 (not reac0) (not reac1) (not reac6) (not reac7) (not reac8))))
(assert (not (and reac0 (not dir0) reac2 dir2 reac3 dir3 reac4 dir4 reac5 (not dir5) ent0 ent1 ent3 ent4 (not reac1) (not reac6) (not reac7) (not reac8))))
(assert (not (and reac0 dir0 reac2 dir2 reac3 dir3 reac4 dir4 reac5 (not dir5) ent0 ent1 ent3 ent4 (not reac1) (not reac6) (not reac7) (not reac8))))
(assert (not (and reac0 (not dir0) reac2 dir2 reac3 (not dir3) reac4 dir4 reac5 (not dir5) ent0 ent1 ent3 ent4 (not reac1) (not reac6) (not reac7) (not reac8))))
(assert (not (and reac0 dir0 reac2 dir2 reac3 (not dir3) reac4 dir4 reac5 (not dir5) ent0 ent1 ent3 ent4 (not reac1) (not reac6) (not reac7) (not reac8))))
(assert (not (and reac0 (not dir0) reac2 dir2 reac4 dir4 reac5 (not dir5) ent0 ent1 ent3 ent4 (not reac1) (not reac3) (not reac6) (not reac7) (not reac8))))
(assert (not (and reac0 dir0 reac2 dir2 reac4 dir4 reac5 (not dir5) ent0 ent1 ent3 ent4 (not reac1) (not reac3) (not reac6) (not reac7) (not reac8))))
(assert (not (and reac1 (not dir1) reac3 dir3 reac4 dir4 reac5 (not dir5) ent0 ent2 ent3 ent4 (not reac0) (not reac2) (not reac6) (not reac7) (not reac8))))
(assert (not (and reac1 (not dir1) reac3 (not dir3) reac4 (not dir4) reac5 dir5 ent1 ent2 ent3 ent4 (not reac0) (not reac2) (not reac6) (not reac7) (not reac8))))
(assert (not (and reac1 (not dir1) reac2 dir2 reac3 (not dir3) reac4 (not dir4) reac5 dir5 ent1 ent2 ent3 ent4 (not reac0) (not reac6) (not reac7) (not reac8))))
(assert (not (and reac1 (not dir1) reac2 (not dir2) reac3 (not dir3) reac4 (not dir4) reac5 dir5 ent1 ent2 ent3 ent4 (not reac0) (not reac6) (not reac7) (not reac8))))
(assert (not (and reac0 dir0 reac1 dir1 reac4 (not dir4) reac5 dir5 ent0 ent1 ent2 ent4 (not reac2) (not reac3) (not reac6) (not reac7) (not reac8))))
(assert (not (and reac1 dir1 reac2 (not dir2) reac3 (not dir3) reac4 (not dir4) reac5 dir5 ent1 ent2 ent3 ent4 (not reac0) (not reac6) (not reac7) (not reac8))))
(assert (not (and reac1 (not dir1) reac2 dir2 reac3 (not dir3) reac4 (not dir4) ent1 ent2 ent3 ent4 (not reac0) (not reac5) (not reac6) (not reac7) (not reac8))))
(assert (not (and reac0 dir0 reac4 (not dir4) reac5 dir5 reac7 (not dir7) ent0 ent1 ent4 ent5 (not reac1) (not reac2) (not reac3) (not reac6) (not reac8))))
(assert (not (and reac4 dir4 reac5 (not dir5) reac7 (not dir7) reac8 dir8 ent2 ent3 ent4 ent5 (not reac0) (not reac1) (not reac2) (not reac3) (not reac6))))
(assert (not (and reac3 (not dir3) reac4 dir4 reac5 (not dir5) reac7 (not dir7) reac8 dir8 ent2 ent3 ent4 ent5 (not reac0) (not reac1) (not reac2) (not reac6))))
(assert (not (and reac3 dir3 reac4 dir4 reac5 (not dir5) reac7 (not dir7) reac8 dir8 ent2 ent3 ent4 ent5 (not reac0) (not reac1) (not reac2) (not reac6))))
(assert (not (and reac3 (not dir3) reac4 (not dir4) reac5 (not dir5) reac7 (not dir7) reac8 dir8 ent2 ent3 ent4 ent5 (not reac0) (not reac1) (not reac2) (not reac6))))
(assert (not (and reac3 (not dir3) reac4 (not dir4) reac5 dir5 reac7 (not dir7) reac8 dir8 ent2 ent3 ent4 ent5 (not reac0) (not reac1) (not reac2) (not reac6))))
(assert (not (and reac3 (not dir3) reac4 (not dir4) reac7 (not dir7) reac8 dir8 ent2 ent3 ent4 ent5 (not reac0) (not reac1) (not reac2) (not reac5) (not reac6))))
(assert (not (and reac1 (not dir1) reac2 dir2 reac3 (not dir3) reac8 (not dir8) ent1 ent2 ent3 ent5 (not reac0) (not reac4) (not reac5) (not reac6) (not reac7))))
(assert (not (and reac1 (not dir1) reac2 dir2 reac3 (not dir3) reac7 dir7 reac8 (not dir8) ent1 ent2 ent3 ent5 (not reac0) (not reac4) (not reac5) (not reac6))))
(assert (not (and reac1 (not dir1) reac2 dir2 reac3 dir3 reac7 dir7 reac8 (not dir8) ent1 ent2 ent3 ent5 (not reac0) (not reac4) (not reac5) (not reac6))))
(assert (not (and reac0 dir0 reac2 dir2 reac3 (not dir3) reac5 (not dir5) ent0 ent1 ent3 ent4 (not reac1) (not reac4) (not reac6) (not reac7) (not reac8))))
(assert (not (and reac3 (not dir3) reac5 (not dir5) reac7 (not dir7) reac8 dir8 ent2 ent3 ent4 ent5 (not reac0) (not reac1) (not reac2) (not reac4) (not reac6))))
(check-sat)
(get-model)
